25	3	3
5	7	9	36	11	30	
0	0	0	0	5	7	1	6	5	9	23	2	3	4	5	6	7	8	9	10	11	12	13	14	15	16	17	18	19	20	21	22	23	24
313	2	1	3	6	3	2	3	9	8	4	17	20	4	3
111	4	1	3	8	4	6	10	7	3	3	4	8	5
6	3	1	3	1	9	10	10	1	6	4	9	5	21	11
4	1	1	3	9	8	7	6	6	1	3	10	18	16
6	3	1	3	1	1	7	1	6	1	1	9
3	3	1	2	9	2	4	10	5	2	1	9
100	2	2	1	8	2	6	3	1	2	2	18	22
283	2	2	3	6	1	1	5	1	1	3	14	21	20
5	2	1	2	10	10	9	6	6	5	3	14	18	15
2	2	1	2	6	6	6	3	6	1	1	17
261	1	1	3	3	5	3	7	5	7	2	14	13
115	3	2	2	8	3	9	3	5	9	3	15	23	16
283	3	1	1	5	10	10	5	5	1	2	21	15
5	3	1	1	6	4	1	4	10	6	1	25
299	4	1	3	9	5	1	4	8	7	2	19	21
3	1	2	1	5	1	2	8	7	6	1	19
299	5	2	3	4	5	8	2	7	3	1	22
277	2	1	2	1	2	3	10	6	7	1	25
3	4	2	2	1	1	1	1	5	10	1	22
1	5	2	3	6	4	5	7	8	2	1	25
4	2	1	2	4	2	2	6	9	8	1	25
3	5	1	3	1	3	2	9	5	9	1	25
4	1	1	2	2	5	10	4	5	6	1	25
0	0	0	0	1	5	7	1	5	2	0
